(set-logic BV) (define-fun origCir ((n199 Bool) (n195 Bool) (n190 Bool) (n191 Bool) (n189 Bool)) Bool (xor (and n199 (not (xor (and n195 (xor (and n191 n190) n189)) (xor (and n191 n190) n189)))) (xor (and n195 (xor (and n191 n190) n189)) (xor (and n191 n190) n189)))) (synth-fun skel ((n199 Bool) (n195 Bool) (n190 Bool) (n191 Bool) (n189 Bool)) Bool) (declare-var n199 Bool) (declare-var n195 Bool) (declare-var n190 Bool) (declare-var n191 Bool) (declare-var n189 Bool) (constraint (= (origCir n199 n195 n190 n191 n189) (skel n199 n195 n190 n191 n189))) (check-synth)
